74 69 
77 84 
33 36 
62 90 
68 18 
33 26 
65 65 
40 92 
78 74 
42 11 
9 86 
9 89 
77 75 
28 7 
33 53 
27 7 
23 57 
43 56 
93 5 
98 13 
24 31 
92 89 
96 84 
33 26 
58 76 
38 68 
14 99 
9 43 
75 37 
51 8 
91 30 
68 66 
39 11 
74 84 
17 72 
98 41 
3 42 
82 51 
26 16 
77 85 
44 67 
5 10 
67 14 
53 94 
51 56 
2 94 
87 70 
12 78 
34 86 
63 51 
